(set-logic QF_S)
(declare-fun var0 () String)
(assert (str.in.re var0 (re.++ (re.+ (re.* (str.to.re "0"))) (re.++ (re.+ (re.* (str.to.re "1"))) (re.++ (re.union (re.* (str.to.re "22")) (re.* (str.to.re "3"))) (re.++ (re.union (re.* (str.to.re "44")) (re.* (str.to.re "5"))) (re.++ (re.union (re.union (str.to.re "666") (str.to.re "77")) (re.union (str.to.re "888") (str.to.re "99"))) (re.++ (re.* (re.union (str.to.re "aaa") (str.to.re "bb"))) (re.++ (re.* (re.union (str.to.re "cc") (str.to.re "d"))) (re.++ (re.+ (re.* (str.to.re "e"))) (re.++ (re.+ (re.+ (str.to.re "f"))) (re.++ (re.union (re.* (str.to.re "gg")) (re.* (str.to.re "h"))) (re.++ (re.* (re.union (str.to.re "ii") (str.to.re "j"))) (re.++ (re.* (re.* (str.to.re "kk"))) (re.++ (re.* (re.* (str.to.re "ll"))) (re.++ (re.+ (re.+ (str.to.re "mm"))) (re.++ (re.union (re.* (str.to.re "nnn")) (re.* (str.to.re "o"))) (re.++ (re.+ (re.+ (str.to.re "p"))) (re.++ (re.union (re.union (str.to.re "q") (str.to.re "r")) (re.union (str.to.re "ss") (str.to.re "t"))) (re.++ (re.+ (re.+ (str.to.re "uuu"))) (re.++ (re.+ (re.* (str.to.re "vvv"))) (re.++ (re.+ (re.union (str.to.re "ww") (str.to.re "xx"))) (re.++ (re.* (re.* (str.to.re "y"))) (re.++ (re.* (re.* (str.to.re "zz"))) (re.++ (re.union (re.+ (str.to.re "AA")) (re.+ (str.to.re "BB"))) (re.++ (re.union (re.+ (str.to.re "CC")) (re.+ (str.to.re "DDD"))) (re.++ (re.* (re.union (str.to.re "EEE") (str.to.re "FF"))) (re.++ (re.+ (re.* (str.to.re "G"))) (re.++ (re.union (re.+ (str.to.re "HH")) (re.+ (str.to.re "II"))) (re.++ (re.* (re.union (str.to.re "J") (str.to.re "KK"))) (re.++ (re.+ (re.+ (str.to.re "L"))) (re.++ (re.union (re.+ (str.to.re "MMM")) (re.+ (str.to.re "N"))) (re.++ (re.union (re.* (str.to.re "O")) (re.* (str.to.re "PP"))) (re.++ (re.union (re.+ (str.to.re "Q")) (re.+ (str.to.re "R"))) (re.++ (re.+ (re.* (str.to.re "SSS"))) (re.++ (re.* (re.union (str.to.re "TT") (str.to.re "UU"))) (re.++ (re.+ (re.+ (str.to.re "V"))) (re.++ (re.* (re.* (str.to.re "W"))) (re.++ (re.union (re.* (str.to.re "XXX")) (re.* (str.to.re "YY"))) (re.++ (re.* (re.union (str.to.re "Z") (str.to.re "!"))) (re.++ (re.* (re.* (str.to.re """"""""))) (re.++ (re.* (re.+ (str.to.re "#"))) (re.++ (re.+ (re.+ (str.to.re "$"))) (re.++ (re.* (re.union (str.to.re "%%%") (str.to.re "&"))) (re.++ (re.+ (re.union (str.to.re "'''") (str.to.re "("))) (re.++ (re.* (re.union (str.to.re "))") (str.to.re "**"))) (re.++ (re.union (re.union (str.to.re "+++") (str.to.re ",,,")) (re.union (str.to.re "-") (str.to.re "."))) (re.++ (re.union (re.union (str.to.re "/") (str.to.re ":::")) (re.union (str.to.re ";") (str.to.re "<<<"))) (re.++ (re.+ (re.+ (str.to.re "==="))) (re.++ (re.union (re.+ (str.to.re ">")) (re.+ (str.to.re "???"))) (re.++ (re.+ (re.* (str.to.re "@"))) (re.++ (re.* (re.* (str.to.re "["))) (re.++ (re.* (re.* (str.to.re "\\"))) (re.++ (re.+ (re.* (str.to.re "]]"))) (re.++ (re.+ (re.union (str.to.re "^^^") (str.to.re "__"))) (re.++ (re.+ (re.+ (str.to.re "``"))) (re.++ (re.* (re.union (str.to.re "{") (str.to.re "||"))) (re.++ (re.* (re.union (str.to.re "}}}") (str.to.re "~~~"))) (re.++ (re.union (re.+ (str.to.re "0")) (re.+ (str.to.re "1"))) (re.++ (re.+ (re.* (str.to.re "222"))) (re.++ (re.+ (re.+ (str.to.re "333"))) (re.++ (re.* (re.* (str.to.re "444"))) (re.++ (re.union (re.union (str.to.re "55") (str.to.re "66")) (re.union (str.to.re "777") (str.to.re "88"))) (re.++ (re.* (re.* (str.to.re "99"))) (re.++ (re.union (re.+ (str.to.re "aaa")) (re.+ (str.to.re "bb"))) (re.++ (re.union (re.union (str.to.re "c") (str.to.re "dd")) (re.union (str.to.re "ee") (str.to.re "fff"))) (re.++ (re.* (re.* (str.to.re "ggg"))) (re.++ (re.union (re.* (str.to.re "hhh")) (re.* (str.to.re "iii"))) (re.++ (re.+ (re.* (str.to.re "j"))) (re.++ (re.+ (re.* (str.to.re "kkk"))) (re.++ (re.+ (re.* (str.to.re "lll"))) (re.++ (re.+ (re.* (str.to.re "mmm"))) (re.++ (re.+ (re.+ (str.to.re "nn"))) (re.++ (re.+ (re.+ (str.to.re "oo"))) (re.++ (re.union (re.union (str.to.re "pp") (str.to.re "qq")) (re.union (str.to.re "r") (str.to.re "sss"))) (re.++ (re.union (re.* (str.to.re "ttt")) (re.* (str.to.re "u"))) (re.++ (re.+ (re.* (str.to.re "vvv"))) (re.++ (re.* (re.* (str.to.re "www"))) (re.++ (re.+ (re.* (str.to.re "x"))) (re.++ (re.+ (re.union (str.to.re "yyy") (str.to.re "z"))) (re.++ (re.union (re.+ (str.to.re "A")) (re.+ (str.to.re "BBB"))) (re.++ (re.union (re.* (str.to.re "CC")) (re.* (str.to.re "DD"))) (re.++ (re.+ (re.union (str.to.re "EEE") (str.to.re "FFF"))) (re.++ (re.+ (re.+ (str.to.re "G"))) (re.++ (re.* (re.union (str.to.re "HH") (str.to.re "I"))) (re.++ (re.* (re.* (str.to.re "J"))) (re.++ (re.union (re.union (str.to.re "KKK") (str.to.re "LL")) (re.union (str.to.re "M") (str.to.re "NNN"))) (re.++ (re.* (re.* (str.to.re "OO"))) (re.++ (re.union (re.union (str.to.re "PPP") (str.to.re "QQQ")) (re.union (str.to.re "RRR") (str.to.re "SSS"))) (re.++ (re.* (re.+ (str.to.re "TT"))) (re.++ (re.union (re.* (str.to.re "U")) (re.* (str.to.re "VVV"))) (re.++ (re.union (re.+ (str.to.re "WWW")) (re.+ (str.to.re "XX"))) (re.++ (re.* (re.+ (str.to.re "YYY"))) (re.++ (re.+ (re.+ (str.to.re "ZZ"))) (re.++ (re.+ (re.+ (str.to.re "!"))) (re.++ (re.* (re.+ (str.to.re """"))) (re.++ (re.* (re.* (str.to.re "###"))) (re.++ (re.union (re.+ (str.to.re "$$$")) (re.+ (str.to.re "%"))) (re.++ (re.+ (re.union (str.to.re "&") (str.to.re "''"))) (re.++ (re.union (re.* (str.to.re "((")) (re.* (str.to.re "))"))) (re.++ (re.* (re.* (str.to.re "***"))) (re.++ (re.union (re.+ (str.to.re "++")) (re.+ (str.to.re ",,,"))) (re.++ (re.union (re.* (str.to.re "-")) (re.* (str.to.re ".."))) (re.++ (re.+ (re.* (str.to.re "/"))) (re.++ (re.* (re.+ (str.to.re ":"))) (re.++ (re.* (re.+ (str.to.re ";;"))) (re.++ (re.+ (re.union (str.to.re "<<") (str.to.re "=="))) (re.++ (re.+ (re.union (str.to.re ">>") (str.to.re "?"))) (re.++ (re.+ (re.+ (str.to.re "@@"))) (re.++ (re.+ (re.union (str.to.re "[") (str.to.re "\\\\\\"))) (re.++ (re.union (re.union (str.to.re "]]") (str.to.re "^")) (re.union (str.to.re "_") (str.to.re "``"))) (re.++ (re.* (re.+ (str.to.re "{{"))) (re.++ (re.* (re.union (str.to.re "|||") (str.to.re "}"))) (re.++ (re.union (re.* (str.to.re "~~~")) (re.* (str.to.re "00"))) (re.++ (re.union (re.+ (str.to.re "11")) (re.+ (str.to.re "222"))) (re.++ (re.union (re.+ (str.to.re "333")) (re.+ (str.to.re "44"))) (re.++ (re.+ (re.union (str.to.re "5") (str.to.re "666"))) (re.++ (re.* (re.union (str.to.re "777") (str.to.re "88"))) (re.++ (re.+ (re.union (str.to.re "99") (str.to.re "aaa"))) (re.++ (re.+ (re.* (str.to.re "bbb"))) (re.++ (re.union (re.union (str.to.re "c") (str.to.re "dd")) (re.union (str.to.re "eee") (str.to.re "ff"))) (re.++ (re.* (re.union (str.to.re "ggg") (str.to.re "hhh"))) (re.++ (re.+ (re.+ (str.to.re "i"))) (re.++ (re.+ (re.* (str.to.re "jj"))) (re.++ (re.union (re.union (str.to.re "kk") (str.to.re "lll")) (re.union (str.to.re "m") (str.to.re "nn"))) (re.++ (re.+ (re.union (str.to.re "o") (str.to.re "pp"))) (re.++ (re.* (re.+ (str.to.re "q"))) (re.++ (re.union (re.+ (str.to.re "rr")) (re.+ (str.to.re "ss"))) (re.++ (re.union (re.* (str.to.re "t")) (re.* (str.to.re "u"))) (re.++ (re.+ (re.+ (str.to.re "vvv"))) (re.++ (re.union (re.* (str.to.re "w")) (re.* (str.to.re "xx"))) (re.++ (re.union (re.+ (str.to.re "yyy")) (re.+ (str.to.re "z"))) (re.++ (re.+ (re.* (str.to.re "AA"))) (re.++ (re.+ (re.union (str.to.re "BBB") (str.to.re "CCC"))) (re.++ (re.* (re.* (str.to.re "D"))) (re.++ (re.union (re.union (str.to.re "EEE") (str.to.re "FFF")) (re.union (str.to.re "GG") (str.to.re "HH"))) (re.++ (re.+ (re.+ (str.to.re "III"))) (re.++ (re.* (re.* (str.to.re "JJ"))) (re.++ (re.union (re.+ (str.to.re "K")) (re.+ (str.to.re "LL"))) (re.++ (re.union (re.* (str.to.re "MMM")) (re.* (str.to.re "N"))) (re.++ (re.* (re.union (str.to.re "OO") (str.to.re "P"))) (re.++ (re.+ (re.union (str.to.re "QQ") (str.to.re "RRR"))) (re.++ (re.* (re.+ (str.to.re "SSS"))) (re.++ (re.union (re.* (str.to.re "TT")) (re.* (str.to.re "UU"))) (re.++ (re.* (re.+ (str.to.re "VVV"))) (re.++ (re.union (re.union (str.to.re "WWW") (str.to.re "XX")) (re.union (str.to.re "YY") (str.to.re "Z"))) (re.++ (re.union (re.* (str.to.re "!!!")) (re.* (str.to.re """"))) (re.++ (re.+ (re.+ (str.to.re "###"))) (re.++ (re.+ (re.+ (str.to.re "$"))) (re.++ (re.+ (re.* (str.to.re "%"))) (re.++ (re.union (re.* (str.to.re "&&")) (re.* (str.to.re "''"))) (re.++ (re.union (re.union (str.to.re "(((") (str.to.re "))")) (re.union (str.to.re "*") (str.to.re "++"))) (re.++ (re.+ (re.+ (str.to.re ","))) (re.++ (re.union (re.union (str.to.re "--") (str.to.re "..")) (re.union (str.to.re "/") (str.to.re "::"))) (re.++ (re.+ (re.* (str.to.re ";;"))) (re.++ (re.+ (re.+ (str.to.re "<<<"))) (re.++ (re.* (re.union (str.to.re "==") (str.to.re ">>>"))) (re.++ (re.+ (re.union (str.to.re "??") (str.to.re "@@@"))) (re.++ (re.* (re.+ (str.to.re "["))) (re.++ (re.union (re.* (str.to.re "\\\\\\")) (re.* (str.to.re "]]]"))) (re.++ (re.union (re.+ (str.to.re "^")) (re.+ (str.to.re "__"))) (re.++ (re.* (re.* (str.to.re "```"))) (re.++ (re.+ (re.+ (str.to.re "{"))) (re.++ (re.* (re.union (str.to.re "||") (str.to.re "}}}"))) (re.++ (re.union (re.union (str.to.re "~~~") (str.to.re "00")) (re.union (str.to.re "1") (str.to.re "222"))) (re.++ (re.+ (re.* (str.to.re "33"))) (re.++ (re.* (re.+ (str.to.re "4"))) (re.++ (re.union (re.union (str.to.re "5") (str.to.re "666")) (re.union (str.to.re "777") (str.to.re "8"))) (re.++ (re.union (re.+ (str.to.re "999")) (re.+ (str.to.re "a"))) (re.++ (re.+ (re.+ (str.to.re "b"))) (re.++ (re.* (re.* (str.to.re "ccc"))) (re.++ (re.+ (re.+ (str.to.re "d"))) (re.++ (re.+ (re.union (str.to.re "e") (str.to.re "fff"))) (re.++ (re.+ (re.union (str.to.re "g") (str.to.re "hhh"))) (re.++ (re.+ (re.union (str.to.re "i") (str.to.re "j"))) (re.++ (re.union (re.union (str.to.re "k") (str.to.re "l")) (re.union (str.to.re "m") (str.to.re "nn"))) (re.++ (re.union (re.+ (str.to.re "ooo")) (re.+ (str.to.re "ppp"))) (re.++ (re.+ (re.union (str.to.re "q") (str.to.re "rrr"))) (re.++ (re.union (re.+ (str.to.re "ss")) (re.+ (str.to.re "tt"))) (re.++ (re.+ (re.* (str.to.re "u"))) (re.++ (re.* (re.+ (str.to.re "vv"))) (re.++ (re.union (re.* (str.to.re "ww")) (re.* (str.to.re "xx"))) (re.++ (re.+ (re.* (str.to.re "yy"))) (re.++ (re.union (re.+ (str.to.re "zz")) (re.+ (str.to.re "A"))) (re.++ (re.union (re.union (str.to.re "BBB") (str.to.re "C")) (re.union (str.to.re "DD") (str.to.re "E"))) (re.++ (re.* (re.+ (str.to.re "FF"))) (re.++ (re.union (re.union (str.to.re "GGG") (str.to.re "HH")) (re.union (str.to.re "II") (str.to.re "JJJ"))) (re.++ (re.+ (re.* (str.to.re "KKK"))) (re.++ (re.+ (re.* (str.to.re "L"))) (re.++ (re.+ (re.* (str.to.re "MM"))) (re.++ (re.* (re.union (str.to.re "NNN") (str.to.re "OOO"))) (re.++ (re.union (re.* (str.to.re "PPP")) (re.* (str.to.re "QQQ"))) (re.++ (re.* (re.union (str.to.re "RRR") (str.to.re "S"))) (re.++ (re.union (re.union (str.to.re "TTT") (str.to.re "U")) (re.union (str.to.re "V") (str.to.re "W"))) (re.++ (re.+ (re.+ (str.to.re "X"))) (re.++ (re.* (re.union (str.to.re "YYY") (str.to.re "ZZ"))) (re.++ (re.* (re.union (str.to.re "!!") (str.to.re """"))) (re.++ (re.+ (re.union (str.to.re "##") (str.to.re "$$$"))) (re.* (re.* (str.to.re "%%")))))))))))))))))))))))))))))))))))))))))))))))))))))))))))))))))))))))))))))))))))))))))))))))))))))))))))))))))))))))))))))))))))))))))))))))))))))))))))))))))))))))))))))))))))))))))))))))))))))))))
(check-sat)